50
133
149
257
243
213
253
254
253
189
219
161
179
155
214
186
154
173
186
252
253
257
167
210
173
142
152
222
141
164
154
242
252
257
156
144
204
135
232
251
167
253
162
150
148
159
233
162
168
193
237
